12 30
1 6 7
2 4 5 11 12
5 6 10 12
5 6 7 10
1 5 8 11
1 8 11
2 4 5 7 12
3 4 6 8 11
1 4 7 9 11
4 6 7 10 12
2 4 5 8
1 4 9 10 12
5 6 9 11 12
4 5 10 11 12
4 6 8 9 11
1 3 8 12
4 7 8 10 11
2 3 4 5
1 3 7 8
1 9 12
1 3 5 9 10
2 6 11
1 5 9 11
7 8 12
2 4 5 6 8
1 2 3 6 10
1 2 6 7 12
3 6 8 9 11
3 4 6 11
8 11 12
8 7 6 6 7 6 4 6 7 6 8 8 5 7 8 5 8 8 7 8 8 7 5 7 4 6 7 8 6 6
